Route #1: 1 1 16 13 8 18 19 3 12 15 11 4 10 1 
Route #2: 1 6 20 5 14 17 9 7 2 1 

Cost 194.979
Time 0.0939


 * Another infos *

 Iterations: 21 Time: 0.0939 sec - 0.0016 min - 0.0000 horas
0.0000 h 0.0016 min
Problem dimension: 21
